
n_res = 4;
rcap = [74, 89, 588, 584];
rtype = [1, 1, 2, 2];
n_tasks = 50;
modes =  [{1, 2, 3, 4, 5, 6}, {7, 8, 9, 10, 11, 12}, {13, 14, 15, 16, 17, 18}, {19, 20, 21, 22, 23, 24}, {25, 26, 27, 28, 29, 30}, {31, 32, 33, 34, 35, 36}, {37, 38, 39, 40, 41, 42}, {43, 44, 45, 46, 47, 48}, {49, 50, 51, 52, 53, 54}, {55, 56, 57, 58, 59, 60}, {61, 62, 63, 64, 65, 66}, {67, 68, 69, 70, 71, 72}, {73, 74, 75, 76, 77, 78}, {79, 80, 81, 82, 83, 84}, {85, 86, 87, 88, 89, 90}, {91, 92, 93, 94, 95, 96}, {97, 98, 99, 100, 101, 102}, {103, 104, 105, 106, 107, 108}, {109, 110, 111, 112, 113, 114}, {115, 116, 117, 118, 119, 120}, {121, 122, 123, 124, 125, 126}, {127, 128, 129, 130, 131, 132}, {133, 134, 135, 136, 137, 138}, {139, 140, 141, 142, 143, 144}, {145, 146, 147, 148, 149, 150}, {151, 152, 153, 154, 155, 156}, {157, 158, 159, 160, 161, 162}, {163, 164, 165, 166, 167, 168}, {169, 170, 171, 172, 173, 174}, {175, 176, 177, 178, 179, 180}, {181, 182, 183, 184, 185, 186}, {187, 188, 189, 190, 191, 192}, {193, 194, 195, 196, 197, 198}, {199, 200, 201, 202, 203, 204}, {205, 206, 207, 208, 209, 210}, {211, 212, 213, 214, 215, 216}, {217, 218, 219, 220, 221, 222}, {223, 224, 225, 226, 227, 228}, {229, 230, 231, 232, 233, 234}, {235, 236, 237, 238, 239, 240}, {241, 242, 243, 244, 245, 246}, {247, 248, 249, 250, 251, 252}, {253, 254, 255, 256, 257, 258}, {259, 260, 261, 262, 263, 264}, {265, 266, 267, 268, 269, 270}, {271, 272, 273, 274, 275, 276}, {277, 278, 279, 280, 281, 282}, {283, 284, 285, 286, 287, 288}, {289, 290, 291, 292, 293, 294}, {295, 296, 297, 298, 299, 300}];
succ =  [{18, 17, 15, 11, 9}, {18, 17, 15, 13, 9}, {18, 15, 11, 9}, {18, 15, 13, 12, 10}, {21, 18, 17, 16, 14}, {18, 16, 14, 13}, {18, 16, 14, 13}, {19, 13, 12}, {10}, {25, 21, 16, 14}, {16, 13}, {25, 16}, {25, 23, 21, 20}, {27, 23, 19}, {27, 25, 23, 22}, {27, 23, 20}, {25, 23, 20}, {27, 22}, {20}, {30, 22}, {33, 31, 30, 29, 28}, {29, 28, 26}, {32, 24}, {36, 35, 34, 33, 31, 30}, {35, 34, 31, 30, 29}, {40, 37, 36, 35, 33, 31}, {39, 36, 35, 34, 30}, {42, 39, 36, 35, 34}, {44, 43, 42, 32}, {44, 42, 41, 40, 38, 37}, {50, 44, 42, 41, 39, 38}, {49, 41, 39, 38, 37}, {49, 46, 44, 43, 38}, {49, 41, 37}, {50, 44, 43}, {49, 41, 38}, {50, 48, 46, 45}, {48, 45}, {48, 45}, {50, 45}, {48, 47}, {49, 48}, {48, 47}, {45}, {47}, {47}, {}, {}, {}, {}];
n_opt = 300;
dur = [4, 8, 11, 14, 15, 16, 2, 10, 15, 16, 18, 19, 3, 5, 6, 13, 15, 19, 1, 3, 5, 10, 14, 20, 10, 11, 14, 15, 18, 19, 1, 3, 5, 9, 16, 20, 3, 5, 11, 13, 15, 20, 1, 2, 8, 10, 17, 18, 2, 12, 14, 15, 16, 18, 4, 5, 6, 9, 11, 13, 9, 11, 12, 13, 14, 15, 2, 6, 7, 8, 10, 13, 2, 3, 10, 13, 17, 18, 1, 3, 9, 10, 13, 19, 9, 10, 11, 15, 16, 17, 6, 9, 15, 16, 18, 19, 5, 6, 13, 17, 19, 20, 1, 2, 4, 6, 12, 13, 3, 4, 6, 13, 14, 15, 2, 6, 8, 9, 10, 11, 3, 8, 9, 13, 19, 20, 3, 6, 10, 11, 12, 20, 2, 6, 7, 13, 14, 16, 3, 6, 7, 14, 17, 18, 1, 4, 5, 6, 7, 11, 5, 6, 10, 12, 16, 20, 1, 5, 7, 13, 16, 17, 1, 3, 4, 5, 18, 19, 1, 11, 15, 16, 17, 18, 1, 2, 6, 10, 11, 17, 1, 3, 6, 7, 8, 18, 3, 11, 14, 15, 16, 17, 3, 4, 5, 6, 7, 12, 4, 11, 12, 15, 18, 19, 7, 8, 9, 10, 15, 17, 3, 8, 9, 10, 11, 19, 3, 10, 12, 16, 17, 18, 2, 3, 10, 17, 19, 20, 4, 5, 7, 9, 15, 16, 6, 9, 15, 17, 18, 20, 2, 3, 13, 14, 19, 20, 1, 5, 11, 12, 13, 16, 6, 7, 8, 9, 11, 13, 3, 9, 10, 11, 13, 18, 3, 4, 11, 13, 16, 20, 4, 7, 10, 16, 19, 20, 3, 4, 6, 10, 11, 19, 1, 14, 15, 16, 18, 19, 2, 3, 5, 8, 17, 18, 5, 7, 8, 14, 17, 18];
rreq = [|17, 16, 12, 11, 8, 3, 11, 11, 11, 10, 10, 9, 6, 5, 5, 5, 4, 4, 11, 10, 10, 10, 10, 10, 6, 6, 5, 4, 3, 2, 2, 1, 1, 1, 1, 1, 15, 15, 14, 13, 11, 11, 17, 14, 12, 9, 8, 4, 9, 9, 9, 9, 9, 9, 10, 9, 9, 9, 9, 9, 12, 8, 8, 7, 4, 2, 16, 16, 15, 13, 12, 12, 5, 5, 4, 3, 3, 2, 5, 4, 4, 3, 2, 2, 10, 10, 10, 10, 10, 10, 14, 14, 11, 9, 5, 5, 6, 6, 6, 5, 5, 5, 3, 2, 2, 2, 2, 2, 7, 6, 5, 4, 3, 2, 9, 8, 5, 5, 2, 1, 19, 15, 12, 11, 10, 7, 10, 9, 9, 8, 8, 8, 19, 18, 17, 17, 15, 14, 10, 10, 8, 8, 6, 5, 14, 12, 9, 9, 7, 4, 16, 16, 14, 14, 13, 12, 20, 20, 20, 20, 20, 20, 18, 18, 15, 15, 12, 10, 16, 14, 12, 12, 11, 10, 9, 9, 8, 6, 6, 4, 15, 13, 13, 13, 12, 11, 3, 2, 2, 1, 1, 1, 6, 6, 4, 4, 3, 2, 18, 17, 15, 14, 14, 12, 9, 9, 7, 7, 5, 5, 12, 11, 11, 11, 11, 11, 20, 17, 15, 15, 14, 12, 12, 10, 10, 10, 9, 8, 10, 8, 7, 6, 3, 3, 13, 13, 13, 13, 13, 13, 16, 15, 14, 14, 13, 13, 5, 4, 3, 3, 2, 2, 13, 11, 9, 9, 7, 6, 18, 18, 18, 17, 17, 17, 17, 16, 15, 15, 14, 14, 19, 18, 17, 16, 16, 15, 11, 11, 10, 9, 7, 6, 16, 15, 14, 12, 10, 10, 13, 10, 10, 8, 5, 4, 18, 15, 11, 10, 5, 5
 |13, 12, 11, 10, 7, 6, 12, 12, 12, 12, 12, 12, 12, 12, 9, 6, 6, 2, 17, 15, 14, 12, 11, 9, 16, 14, 14, 11, 11, 8, 15, 15, 13, 10, 10, 8, 11, 9, 8, 8, 7, 5, 17, 14, 13, 9, 7, 3, 18, 15, 13, 11, 8, 7, 20, 18, 17, 17, 15, 14, 8, 8, 7, 6, 5, 5, 3, 2, 2, 2, 2, 2, 2, 1, 1, 1, 1, 1, 12, 11, 9, 8, 8, 7, 12, 11, 10, 7, 4, 2, 10, 9, 8, 8, 7, 5, 16, 14, 13, 13, 12, 10, 11, 11, 10, 10, 9, 9, 14, 13, 12, 12, 10, 10, 12, 11, 9, 8, 8, 6, 13, 12, 12, 11, 8, 8, 13, 13, 10, 10, 8, 7, 11, 10, 9, 6, 3, 1, 18, 17, 16, 15, 15, 14, 14, 14, 14, 14, 14, 14, 14, 14, 14, 13, 13, 13, 14, 10, 9, 6, 3, 1, 15, 13, 12, 10, 8, 8, 16, 14, 12, 10, 9, 5, 15, 12, 11, 9, 9, 6, 9, 6, 5, 3, 2, 2, 16, 16, 15, 14, 12, 12, 14, 13, 12, 9, 7, 4, 15, 14, 14, 13, 13, 12, 18, 14, 12, 7, 6, 4, 10, 9, 8, 7, 7, 5, 15, 14, 14, 13, 13, 13, 10, 8, 7, 5, 4, 4, 16, 14, 12, 11, 7, 6, 5, 5, 5, 5, 5, 5, 7, 7, 5, 4, 4, 3, 10, 7, 6, 6, 4, 4, 14, 13, 12, 11, 10, 10, 16, 12, 12, 8, 8, 5, 18, 18, 16, 15, 15, 14, 8, 7, 6, 6, 5, 5, 14, 13, 11, 10, 8, 5, 19, 18, 15, 14, 12, 12, 10, 9, 8, 7, 6, 4, 11, 10, 9, 7, 5, 4
 |18, 17, 13, 13, 9, 7, 5, 4, 4, 4, 3, 3, 9, 7, 6, 5, 2, 2, 14, 13, 10, 8, 7, 5, 15, 13, 12, 11, 11, 10, 16, 13, 10, 8, 5, 3, 15, 15, 15, 14, 13, 13, 11, 11, 10, 10, 9, 8, 17, 15, 13, 13, 11, 7, 15, 12, 12, 10, 9, 8, 12, 10, 9, 5, 3, 1, 18, 17, 15, 12, 12, 9, 16, 16, 15, 14, 13, 13, 18, 17, 17, 16, 16, 15, 4, 4, 4, 4, 3, 3, 17, 15, 15, 14, 12, 12, 10, 9, 9, 8, 6, 6, 4, 4, 4, 4, 3, 3, 16, 14, 12, 11, 8, 6, 3, 3, 3, 3, 3, 3, 19, 15, 14, 13, 9, 8, 15, 13, 11, 9, 6, 6, 10, 9, 6, 6, 3, 1, 12, 8, 7, 5, 5, 3, 15, 14, 13, 11, 7, 7, 20, 19, 19, 18, 18, 18, 10, 10, 10, 10, 10, 10, 12, 12, 12, 12, 12, 12, 5, 5, 5, 5, 5, 5, 11, 10, 8, 4, 2, 2, 19, 17, 16, 13, 12, 11, 17, 14, 13, 11, 10, 8, 19, 16, 14, 12, 11, 10, 18, 15, 12, 10, 9, 5, 19, 18, 18, 18, 17, 17, 14, 14, 14, 14, 14, 14, 12, 10, 8, 7, 5, 3, 13, 11, 9, 8, 6, 5, 8, 6, 6, 4, 3, 2, 11, 10, 10, 7, 5, 5, 12, 10, 8, 8, 6, 5, 18, 14, 12, 10, 6, 4, 11, 11, 11, 10, 10, 9, 20, 20, 20, 20, 20, 20, 12, 10, 8, 7, 7, 6, 18, 15, 13, 12, 8, 8, 3, 3, 3, 2, 2, 2, 13, 12, 10, 6, 5, 3, 18, 17, 12, 11, 8, 6, 9, 8, 7, 6, 3, 3
 |11, 10, 10, 9, 8, 8, 19, 19, 18, 18, 18, 17, 12, 12, 11, 11, 10, 10, 16, 16, 16, 15, 15, 15, 8, 8, 8, 8, 7, 7, 17, 16, 15, 13, 9, 9, 8, 8, 8, 8, 8, 8, 19, 14, 14, 11, 6, 6, 13, 12, 10, 9, 8, 7, 16, 15, 15, 12, 11, 10, 18, 18, 18, 18, 18, 18, 14, 13, 13, 12, 11, 11, 17, 16, 14, 12, 11, 11, 12, 11, 9, 7, 6, 4, 4, 4, 4, 4, 4, 4, 6, 6, 5, 4, 4, 3, 19, 18, 16, 12, 11, 10, 11, 8, 8, 6, 4, 2, 17, 16, 15, 14, 14, 13, 17, 15, 14, 12, 11, 10, 15, 15, 15, 14, 14, 14, 17, 13, 12, 9, 6, 1, 10, 10, 10, 10, 9, 9, 12, 10, 7, 5, 5, 2, 18, 17, 16, 16, 15, 14, 17, 17, 17, 16, 16, 16, 13, 11, 9, 6, 4, 2, 19, 15, 14, 13, 8, 8, 16, 14, 14, 12, 7, 5, 8, 7, 7, 6, 5, 5, 13, 11, 11, 8, 7, 3, 5, 5, 5, 5, 5, 5, 9, 8, 8, 7, 7, 6, 16, 12, 12, 10, 6, 6, 14, 14, 14, 14, 14, 14, 14, 12, 12, 11, 10, 8, 17, 15, 11, 10, 5, 4, 6, 5, 4, 4, 3, 3, 17, 17, 15, 14, 13, 12, 11, 8, 7, 5, 4, 2, 11, 11, 11, 11, 11, 11, 9, 9, 7, 7, 6, 5, 14, 12, 12, 10, 10, 9, 13, 13, 12, 13, 12, 12, 11, 11, 9, 7, 6, 6, 5, 5, 5, 5, 4, 4, 17, 17, 17, 17, 17, 17, 15, 14, 11, 10, 7, 7, 6, 6, 6, 6, 6, 6, 3, 2, 2, 2, 2, 2|];